WARNING: for repeatability, setting FPU to use double precision
============================[ Problem Statistics ]=============================
|                                                                             |
|  Number of variables:            50                                         |
|  Number of clauses:             218                                         |
|  Parse time:                   0.00 s                                       |
|                                                                             |
============================[ Search Statistics ]==============================
| Conflicts |          ORIGINAL         |          LEARNT          | Progress |
|           |    Vars  Clauses Literals |    Limit  Clauses Lit/Cl |          |
===============================================================================
===============================================================================
restarts              : 1
conflicts             : 53             (36451 /sec)
decisions             : 68             (0.00 % random) (46768 /sec)
propagations          : 739            (508253 /sec)
conflict literals     : 207            (11.54 % deleted)
Memory used           : 20.00 MB
CPU time              : 0.001454 s

SATISFIABLE
